
Gurobi 7.0.2 (win64, Python) logging started 06/08/17 13:26:19


Gurobi 7.0.2 (win64, Python) logging started 06/08/17 13:27:25


Gurobi 7.0.2 (win64, Python) logging started 06/08/17 13:28:23


Gurobi 7.0.2 (win64, Python) logging started 06/12/17 15:28:01


Gurobi 7.0.2 (win64, Python) logging started 06/12/17 15:28:55


Gurobi 7.0.2 (win64, Python) logging started 06/12/17 15:30:02


Gurobi 7.0.2 (win64, Python) logging started 06/12/17 15:34:22


Gurobi 7.0.2 (win64, Python) logging started 06/12/17 15:37:28


Gurobi 7.0.2 (win64, Python) logging started 06/12/17 15:41:44


Gurobi 7.0.2 (win64, Python) logging started 06/12/17 15:42:57


Gurobi 7.0.2 (win64, Python) logging started 06/12/17 15:45:14


Gurobi 7.0.2 (win64, Python) logging started 06/12/17 15:55:29


Gurobi 7.0.2 (win64, Python) logging started 06/12/17 15:57:01


Gurobi 7.0.2 (win64, Python) logging started 06/12/17 16:05:33


Gurobi 7.0.2 (win64, Python) logging started 06/12/17 16:07:38


Gurobi 7.0.2 (win64, Python) logging started 06/12/17 16:16:44


Gurobi 7.0.2 (win64, Python) logging started 06/12/17 16:19:37


Gurobi 7.0.2 (win64, Python) logging started 06/12/17 16:25:29


Gurobi 7.0.2 (win64, Python) logging started 06/12/17 16:26:07


Gurobi 7.0.2 (win64, Python) logging started 06/12/17 16:32:33


Gurobi 7.0.2 (win64, Python) logging started 06/12/17 16:34:14


Gurobi 7.0.2 (win64, Python) logging started 06/12/17 16:35:08


Gurobi 7.0.2 (win64, Python) logging started 06/12/17 16:36:57


Gurobi 7.0.2 (win64, Python) logging started 06/12/17 16:38:11


Gurobi 7.0.2 (win64, Python) logging started 06/12/17 16:38:12


Gurobi 7.0.2 (win64, Python) logging started 06/12/17 23:29:35


Gurobi 7.0.2 (win64, Python) logging started 06/12/17 23:30:10


Gurobi 7.0.2 (win64, Python) logging started 06/12/17 23:30:51


Gurobi 7.0.2 (win64, Python) logging started 06/12/17 23:32:10


Gurobi 7.0.2 (win64, Python) logging started 06/12/17 23:43:06


Gurobi 7.0.2 (win64, Python) logging started 06/13/17 10:17:08


Gurobi 7.0.2 (win64, Python) logging started 06/13/17 10:20:46


Gurobi 7.0.2 (win64, Python) logging started 06/13/17 10:38:51


Gurobi 7.0.2 (win64, Python) logging started 06/13/17 10:48:36


Gurobi 7.0.2 (win64, Python) logging started 06/13/17 12:02:44


Gurobi 7.0.2 (win64, Python) logging started 06/13/17 15:16:48


Gurobi 7.0.2 (win64, Python) logging started 06/13/17 15:33:48


Gurobi 7.0.2 (win64, Python) logging started 06/13/17 15:55:21

